345 5
10 10 10 10 10 

0 0 0 0 0 0 5 2 14 26 38 50 
0 0 0 0 0 0 4 3 4 5 12 
8 0 0 1 0 0 4 11 10 7 6 
4 0 0 2 0 0 3 10 9 7 
1 0 0 3 0 0 2 9 7 
7 0 0 2 0 0 2 9 8 
4 0 0 2 0 0 1 8 
2 0 0 5 0 0 2 13 168 
8 0 0 1 0 0 1 13 
9 0 0 3 0 0 1 13 
8 0 0 2 0 0 1 13 
8 0 0 4 0 0 1 13 
0 0 0 0 0 0 1 62 
0 0 0 0 0 0 5 15 16 17 18 20 
8 0 0 0 0 1 3 24 21 19 
4 0 0 0 0 4 4 24 21 19 95 
3 0 0 0 0 3 3 24 21 19 
3 0 0 0 0 2 1 19 
4 0 0 0 0 2 2 23 22 
2 0 0 0 0 3 2 23 22 
3 0 0 0 0 1 1 22 
9 0 0 0 0 2 1 25 
2 0 0 0 0 3 1 25 
2 0 0 0 0 4 1 25 
0 0 0 0 0 0 1 62 
0 0 0 0 0 0 4 27 28 29 31 
2 0 0 0 1 0 3 36 33 30 
9 0 0 0 2 0 4 36 35 33 32 
3 0 0 0 2 0 4 35 33 32 202 
9 0 0 0 3 0 2 34 32 
5 0 0 0 5 0 1 34 
4 0 0 0 2 0 1 37 
9 0 0 0 1 0 1 37 
3 0 0 0 2 0 1 37 
4 0 0 0 2 0 1 37 
3 0 0 0 5 0 1 37 
0 0 0 0 0 0 1 62 
0 0 0 0 0 0 4 39 40 41 46 
9 0 0 1 0 0 4 45 44 43 42 
8 0 0 3 0 0 4 45 44 43 42 
9 0 0 1 0 0 3 44 43 42 
6 0 0 3 0 0 2 48 47 
2 0 0 1 0 0 1 48 
4 0 0 3 0 0 2 47 216 
9 0 0 4 0 0 1 48 
6 0 0 3 0 0 1 47 
5 0 0 4 0 0 1 49 
2 0 0 2 0 0 1 49 
0 0 0 0 0 0 1 62 
0 0 0 0 0 0 4 51 52 54 55 
7 0 0 0 0 1 2 60 53 
4 0 0 0 0 2 4 59 58 57 56 
8 0 0 0 0 3 3 59 57 56 
6 0 0 0 0 2 3 58 57 56 
5 0 0 0 0 2 3 58 57 56 
1 0 0 0 0 3 1 61 
8 0 0 0 0 4 2 61 140 
10 0 0 0 0 1 1 61 
6 0 0 0 0 2 1 61 
6 0 0 0 0 5 1 61 
0 0 0 0 0 0 1 62 
0 0 0 0 0 0 5 63 75 87 99 111 
0 0 0 0 0 0 3 64 65 68 
7 0 1 0 0 0 4 73 71 67 66 
10 0 4 0 0 0 3 71 70 69 
1 0 2 0 0 0 2 70 154 
5 0 1 0 0 0 1 69 
8 0 2 0 0 0 1 72 
7 0 3 0 0 0 1 74 
9 0 3 0 0 0 1 74 
6 0 5 0 0 0 1 74 
3 0 3 0 0 0 1 74 
1 0 1 0 0 0 1 74 
0 0 0 0 0 0 1 123 
0 0 0 0 0 0 6 76 79 80 81 82 83 
3 0 0 1 0 0 2 78 77 
8 0 0 3 0 0 2 85 84 
10 0 0 1 0 0 2 85 84 
3 0 0 4 0 0 2 85 84 
9 0 0 3 0 0 2 85 84 
8 0 0 1 0 0 1 84 
6 0 0 2 0 0 1 84 
10 0 0 4 0 0 1 84 
4 0 0 2 0 0 1 86 
8 0 0 4 0 0 1 86 
0 0 0 0 0 0 1 123 
0 0 0 0 0 0 4 88 89 90 91 
3 1 0 0 0 0 3 94 93 92 
7 4 0 0 0 0 3 94 93 92 
3 1 0 0 0 0 3 94 93 92 
10 2 0 0 0 0 2 93 92 
7 1 0 0 0 0 3 97 96 95 
2 1 0 0 0 0 3 97 96 95 
1 4 0 0 0 0 3 97 96 95 
1 2 0 0 0 0 1 98 
7 3 0 0 0 0 1 98 
3 6 0 0 0 0 1 98 
0 0 0 0 0 0 1 123 
0 0 0 0 0 0 8 100 101 103 104 106 107 108 109 
9 1 0 0 0 0 1 102 
6 4 0 0 0 0 1 102 
7 3 0 0 0 0 1 105 
1 3 0 0 0 0 1 105 
8 1 0 0 0 0 1 105 
5 1 0 0 0 0 1 110 
8 2 0 0 0 0 1 110 
2 2 0 0 0 0 1 110 
2 5 0 0 0 0 1 110 
7 3 0 0 0 0 1 110 
0 0 0 0 0 0 1 123 
0 0 0 0 0 0 3 112 114 115 
3 0 0 0 0 1 5 121 120 119 116 113 
1 0 0 0 0 3 1 117 
7 0 0 0 0 5 1 118 
1 0 0 0 0 2 1 116 
8 0 0 0 0 2 1 122 
9 0 0 0 0 2 1 122 
9 0 0 0 0 2 1 122 
6 0 0 0 0 2 1 122 
10 0 0 0 0 3 1 122 
10 0 0 0 0 3 1 122 
0 0 0 0 0 0 1 123 
0 0 0 0 0 0 5 124 136 148 160 172 
0 0 0 0 0 0 5 125 126 127 133 134 
3 0 0 0 1 0 3 132 129 128 
4 0 0 0 2 0 3 132 131 129 
9 0 0 0 1 0 2 131 129 
8 0 0 0 6 0 2 131 130 
2 0 0 0 2 0 1 130 
3 0 0 0 3 0 1 135 
10 0 0 0 2 0 1 135 
4 0 0 0 3 0 1 135 
1 0 0 0 3 0 1 135 
7 0 0 0 2 0 1 135 
0 0 0 0 0 0 1 184 
0 0 0 0 0 0 5 137 138 139 140 141 
6 1 0 0 0 0 3 144 143 142 
8 2 0 0 0 0 2 146 142 
10 1 0 0 0 0 2 143 142 
7 2 0 0 0 0 1 143 
6 2 0 0 0 0 1 142 
2 4 0 0 0 0 1 145 
10 2 0 0 0 0 1 145 
9 5 0 0 0 0 1 145 
5 4 0 0 0 0 1 147 
6 2 0 0 0 0 1 147 
0 0 0 0 0 0 1 184 
0 0 0 0 0 0 5 149 150 152 153 154 
1 0 0 1 0 0 1 151 
6 0 0 7 0 0 1 151 
1 0 0 2 0 0 4 158 157 156 155 
7 0 0 3 0 0 3 157 156 155 
10 0 0 1 0 0 1 156 
3 0 0 3 0 0 1 155 
4 0 0 3 0 0 1 159 
9 0 0 1 0 0 1 159 
6 0 0 3 0 0 1 159 
5 0 0 1 0 0 1 159 
0 0 0 0 0 0 1 184 
0 0 0 0 0 0 3 161 162 166 
8 0 0 0 1 0 2 165 163 
8 0 0 0 1 0 2 164 163 
3 0 0 0 2 0 4 170 169 168 167 
5 0 0 0 3 0 4 170 169 168 167 
9 0 0 0 4 0 3 169 168 167 
1 0 0 0 3 0 3 169 168 167 
9 0 0 0 3 0 1 171 
1 0 0 0 4 0 1 171 
5 0 0 0 1 0 1 171 
8 0 0 0 3 0 1 171 
0 0 0 0 0 0 1 184 
0 0 0 0 0 0 4 173 174 176 182 
4 0 0 0 0 1 4 181 179 178 175 
6 0 0 0 0 1 3 180 179 177 
10 0 0 0 0 2 1 177 
3 0 0 0 0 4 1 178 
6 0 0 0 0 3 1 183 
1 0 0 0 0 3 1 183 
2 0 0 0 0 3 1 183 
8 0 0 0 0 2 1 183 
2 0 0 0 0 4 1 183 
5 0 0 0 0 2 1 183 
0 0 0 0 0 0 1 184 
0 0 0 0 0 0 5 185 207 219 241 263 
0 0 0 0 0 0 6 186 188 189 191 193 196 
9 0 1 0 0 1 2 197 187 
1 0 2 0 0 3 3 203 194 190 
1 0 3 0 0 3 2 197 190 
2 0 5 0 0 4 3 204 198 192 
10 0 2 0 0 1 4 204 201 199 195 
9 0 4 0 0 2 4 202 201 200 197 
8 0 3 0 0 5 2 203 194 
8 0 2 0 0 4 1 194 
8 0 2 0 0 1 3 201 200 199 
9 0 2 0 0 3 3 205 202 200 
8 0 4 0 0 3 2 203 199 
8 0 2 0 0 4 1 198 
4 0 1 0 0 3 1 199 
4 0 3 0 0 1 1 206 
8 0 3 0 0 3 1 206 
8 0 2 0 0 2 1 206 
4 0 3 0 0 1 1 206 
5 0 1 0 0 1 1 206 
1 0 2 0 0 3 1 206 
7 0 3 0 0 2 1 206 
0 0 0 0 0 0 1 345 
0 0 0 0 0 0 5 208 210 211 212 213 
3 0 0 1 0 0 1 209 
7 0 0 3 0 0 1 215 
4 0 0 3 0 0 1 217 
8 0 0 3 0 0 1 216 
5 0 0 2 0 0 1 214 
7 0 0 2 0 0 1 214 
5 0 0 4 0 0 1 218 
4 0 0 3 0 0 1 218 
4 0 0 2 0 0 1 218 
9 0 0 2 0 0 1 218 
0 0 0 0 0 0 5 285 297 309 321 333 
0 0 0 0 0 0 7 220 221 222 224 225 238 239 
9 0 0 1 1 0 5 237 234 229 227 223 
4 0 0 2 2 0 6 235 234 233 230 229 227 
10 0 0 6 3 0 5 235 234 233 232 227 
7 0 0 2 3 0 3 235 233 226 
7 0 0 2 2 0 4 235 234 233 227 
9 0 0 4 3 0 4 234 233 229 228 
9 0 0 1 2 0 3 236 232 228 
2 0 0 2 1 0 1 228 
10 0 0 1 3 0 1 231 
2 0 0 5 5 0 1 232 
4 0 0 3 3 0 1 236 
7 0 0 3 2 0 1 240 
1 0 0 2 1 0 1 240 
1 0 0 3 2 0 1 240 
4 0 0 2 3 0 1 240 
4 0 0 3 6 0 1 240 
4 0 0 3 1 0 1 240 
1 0 0 2 3 0 1 240 
10 0 0 1 2 0 1 240 
9 0 0 2 2 0 1 240 
0 0 0 0 0 0 1 345 
0 0 0 0 0 0 10 242 243 245 246 256 257 258 259 260 261 
7 0 0 0 1 1 3 255 254 244 
1 0 0 0 1 2 4 252 251 250 248 
10 0 0 0 1 5 3 252 250 247 
7 0 0 0 3 2 2 253 251 
7 0 0 0 4 4 2 251 250 
5 0 0 0 1 2 1 248 
3 0 0 0 2 3 1 249 
6 0 0 0 1 2 1 262 
5 0 0 0 1 1 1 262 
7 0 0 0 4 2 1 262 
10 0 0 0 2 5 1 262 
4 0 0 0 4 3 1 262 
9 0 0 0 2 1 1 262 
8 0 0 0 3 1 1 262 
8 0 0 0 4 3 1 262 
9 0 0 0 5 4 1 262 
2 0 0 0 2 3 1 262 
8 0 0 0 4 2 1 262 
4 0 0 0 2 3 1 262 
2 0 0 0 3 1 1 262 
0 0 0 0 0 0 1 345 
0 0 0 0 0 0 16 264 269 270 271 272 273 274 275 276 277 278 279 280 281 282 283 
5 0 1 1 0 0 1 265 
10 0 4 2 0 0 1 266 
3 0 3 4 0 0 1 267 
2 0 4 3 0 0 1 268 
7 0 2 2 0 0 1 284 
1 0 1 2 0 0 1 284 
10 0 4 4 0 0 1 284 
4 0 1 1 0 0 1 284 
5 0 3 3 0 0 1 284 
5 0 2 2 0 0 1 284 
5 0 5 2 0 0 1 284 
3 0 2 2 0 0 1 284 
1 0 1 1 0 0 1 284 
9 0 3 2 0 0 1 284 
7 0 3 1 0 0 1 284 
6 0 2 3 0 0 1 284 
5 0 2 1 0 0 1 284 
10 0 1 6 0 0 1 284 
5 0 3 2 0 0 1 284 
10 0 3 6 0 0 1 284 
0 0 0 0 0 0 1 345 
0 0 0 0 0 0 3 286 287 289 
7 0 0 0 0 1 3 291 290 288 
5 0 0 0 0 2 3 291 290 288 
2 0 0 0 0 1 4 295 294 293 292 
6 0 0 0 0 2 3 294 293 292 
8 0 0 0 0 5 2 294 292 
8 0 0 0 0 3 2 293 292 
6 0 0 0 0 1 1 296 
6 0 0 0 0 2 1 296 
10 0 0 0 0 5 1 296 
1 0 0 0 0 3 1 296 
0 0 0 0 0 0 1 345 
0 0 0 0 0 0 5 298 299 300 301 302 
2 0 0 0 1 0 3 307 305 304 
4 0 0 0 4 0 3 307 304 303 
10 0 0 0 2 0 2 307 303 
1 0 0 0 2 0 2 304 303 
3 0 0 0 2 0 1 303 
5 0 0 0 3 0 1 306 
7 0 0 0 4 0 1 306 
1 0 0 0 2 0 1 306 
1 0 0 0 2 0 1 308 
7 0 0 0 3 0 1 308 
0 0 0 0 0 0 1 345 
0 0 0 0 0 0 7 310 311 315 316 317 318 319 
2 0 0 1 0 0 2 314 312 
7 0 0 2 0 0 2 314 313 
1 0 0 2 0 0 1 313 
5 0 0 6 0 0 1 320 
9 0 0 3 0 0 1 320 
1 0 0 3 0 0 1 320 
6 0 0 2 0 0 1 320 
4 0 0 1 0 0 1 320 
2 0 0 2 0 0 1 320 
9 0 0 3 0 0 1 320 
0 0 0 0 0 0 1 345 
0 0 0 0 0 0 6 322 323 324 329 330 331 
1 0 1 0 0 0 2 328 327 
7 0 5 0 0 0 2 327 326 
6 0 4 0 0 0 1 325 
1 0 2 0 0 0 1 326 
7 0 1 0 0 0 1 332 
6 0 3 0 0 0 1 332 
8 0 3 0 0 0 1 332 
10 0 4 0 0 0 1 332 
2 0 1 0 0 0 1 332 
9 0 1 0 0 0 1 332 
0 0 0 0 0 0 1 345 
0 0 0 0 0 0 4 334 335 336 337 
10 0 0 0 0 1 4 343 342 340 339 
7 0 0 0 0 1 3 343 341 338 
9 0 0 0 0 6 3 343 341 338 
8 0 0 0 0 2 3 343 341 338 
8 0 0 0 0 2 1 342 
10 0 0 0 0 3 1 341 
7 0 0 0 0 3 1 341 
6 0 0 0 0 3 1 344 
6 0 0 0 0 2 1 344 
3 0 0 0 0 2 1 344 
0 0 0 0 0 0 1 345 
0 0 0 0 0 0 0 
